DIMENSION :21
NODE_COORD_SECTION
1 8.612531334146183 -71.06721369954903
2 90.37598882795032 8.173944720985233
3 -56.03567717650637 -20.742498987131967
4 -17.227976534933305 -39.88297442465625
5 76.8558741631303 50.98057987781095
6 67.14995591383118 -39.21702239835354
7 -93.18273565865951 -53.68855740123757
8 -19.00300316607668 69.55568624552959
9 84.88470114309615 -94.04745438610264
10 -20.24077218409805 -25.468839064760033
11 57.597059496835755 -52.7096334330627
12 3.2682155248843685 -92.9848911011498
13 -9.410725557741074 -71.67263479687405
14 41.94585133744732 64.8578505668759
15 -56.36066737510708 -64.5676302962213
16 79.03854751843332 -45.870258809754525
17 23.12713440685866 73.6507761797173
18 54.85862951863567 -20.070705183275408
19 73.21497406094909 -49.76984840555714
20 49.987260260211286 -30.34466029692267
21 -16.33892667250541 85.18078418218349
EOF
